
Gurobi 11.0.3 (linux64) logging started Fri Nov 22 06:22:53 2024

Set parameter LogFile to value "/home/yihong/Coding/OR_SUC/SUC_results_bigM100000_thread4/case24_ieee_rts_theta0.1_epsilon0.05_gurobi_seed770000_num_gen100_N_WDR100_load_scaling_factor1_exact_T16quadra_cost.txt"
Set parameter TimeLimit to value 3600
Gurobi Optimizer version 11.0.3 build v11.0.3rc0 (linux64 - "Ubuntu 20.04.6 LTS")

CPU model: AMD EPYC 7532 32-Core Processor, instruction set [SSE2|AVX|AVX2]
Thread count: 64 physical cores, 128 logical processors, using up to 4 threads

Optimize a model with 38307 rows, 20041 columns and 883306 nonzeros
Model fingerprint: 0x257bc5a7
Model has 1600 quadratic constraints
Variable types: 18341 continuous, 1700 integer (1700 binary)
Coefficient statistics:
  Matrix range     [3e-04, 1e+05]
  QMatrix range    [2e-03, 8e-03]
  QLMatrix range   [2e-01, 6e+01]
  Objective range  [1e+00, 1e+00]
  Bounds range     [1e+00, 1e+00]
  RHS range        [1e+00, 1e+05]
Presolve removed 31400 rows and 8577 columns
Presolve time: 0.26s
Presolved: 6907 rows, 11464 columns, 38382 nonzeros
Presolved model has 1600 quadratic constraint(s)
Variable types: 9780 continuous, 1684 integer (1684 binary)

Root relaxation: objective 2.109325e+04, 5720 iterations, 0.15 seconds (0.21 work units)

    Nodes    |    Current Node    |     Objective Bounds      |     Work
 Expl Unexpl |  Obj  Depth IntInf | Incumbent    BestBd   Gap | It/Node Time

     0     0 21093.2542    0   12          - 21093.2542      -     -    0s
     0     0 187213.621    0  525          - 187213.621      -     -    0s
     0     0 187378.270    0  524          - 187378.270      -     -    0s
     0     0 363519.896    0  497          - 363519.896      -     -    1s
     0     0 363633.489    0  339          - 363633.489      -     -    1s
     0     0 364255.102    0  281          - 364255.102      -     -    1s
     0     0 364360.580    0  280          - 364360.580      -     -    1s
     0     0 364531.667    0  255          - 364531.667      -     -    1s
     0     0 364532.158    0  255          - 364532.158      -     -    1s
     0     2 364532.158    0  255          - 364532.158      -     -    2s
H  466   290                    365281.10919 364547.081  0.20%  31.0    3s
*  466   290             123    365281.10919 364547.081  0.20%  31.0    3s
   529   228 364929.619   36  255 365281.109 364557.088  0.20%  29.6    5s
   551   244 364926.163   21  200 365281.109 364797.324  0.13%  48.1   10s
  1102   376 364968.594  109   22 365281.109 364803.709  0.13%  54.2   15s
H 1178   305                    364955.24765 364803.709  0.04%  52.2   15s
* 1178   305             125    364955.24765 364803.709  0.04%  52.2   15s

Cutting planes:
  Gomory: 11
  Implied bound: 24
  MIR: 21
  Flow cover: 41

Explored 1225 nodes (79809 simplex iterations) in 15.66 seconds (13.70 work units)
Thread count was 4 (of 128 available processors)

Solution count 2: 364955 365281 

Optimal solution found (tolerance 1.00e-03)
Warning: max constraint violation (6.6536e-09) exceeds tolerance
Best objective 3.649552476489e+05, best bound 3.648037088685e+05, gap 0.0415%
